experiment/data/hgs-res/Vrp-Set-P-n22/Vrp-Set-P-n22-hgs/1.hgs1.vrp
NAME : 1
COMMENT : CVRP Instance
TYPE : CVRP
DIMENSION : 22
EDGE_WEIGHT_TYPE : EUC_2D
CAPACITY : 3000
NODE_COORD_SECTION
1	145.0	215.0
2	151.0	264.0
3	159.0	261.0
4	130.0	254.0
5	128.0	252.0
6	163.0	247.0
7	146.0	246.0
8	161.0	242.0
9	142.0	239.0
10	163.0	236.0
11	148.0	232.0
12	128.0	231.0
13	156.0	217.0
14	129.0	214.0
15	146.0	208.0
16	164.0	208.0
17	141.0	206.0
18	147.0	193.0
19	164.0	193.0
20	129.0	189.0
21	155.0	185.0
22	139.0	182.0
DEMAND_SECTION
1	0
2	1100
3	700
4	800
5	1400
6	2100
7	400
8	800
9	100
10	500
11	600
12	1200
13	1300
14	1300
15	300
16	900
17	2100
18	1000
19	900
20	2500
21	1800
22	700
DEPOT_SECTION
1
-1
EOF
