experiment/data/hgs-res/Vrp-Set-P-n22/Vrp-Set-P-n22-hgs/1.hgs1.tour
Route #1: 19
Route #2: 16
Route #3: 21 20 14
Route #4: 17 18 15
Route #5: 12
Route #6: 5 9
Route #7: 6 1 2 7
Route #8: 4 3 8 10
Route #9: 13 11
Cost 588.794
